(declare-const %259 (_ BitVec 40))
(declare-const %258 (_ BitVec 24))
(declare-const PC!44 (_ BitVec 64))
(declare-const PC!45 (_ BitVec 64))
(declare-const PC!42 (_ BitVec 64))
(declare-const PC!43 (_ BitVec 64))
(declare-const PC!40 (_ BitVec 64))
(declare-const PC!41 (_ BitVec 64))
(declare-const PC!46 (_ BitVec 64))
(declare-const %251 (_ BitVec 1))
(declare-const %250 (_ BitVec 3))
(declare-const %253 (_ BitVec 16))
(declare-const %252 (_ BitVec 64))
(declare-const %255 (_ BitVec 3))
(declare-const %254 (_ BitVec 48))
(declare-const %257 (_ BitVec 64))
(declare-const %256 (_ BitVec 1))
(declare-const %303 (_ BitVec 1))
(declare-const prev_pc!14 (_ BitVec 64))
(declare-const prev_pc!13 (_ BitVec 64))
(declare-const %269 (_ BitVec 24))
(declare-const %302 (_ BitVec 3))
(declare-const %305 (_ BitVec 24))
(declare-const %304 (_ BitVec 64))
(declare-const prev_pc!15 (_ BitVec 64))
(declare-const %307 (_ BitVec 3))
(declare-const %306 (_ BitVec 40))
(declare-const prev_pc!12 (_ BitVec 64))
(declare-const %309 (_ BitVec 64))
(declare-const prev_pc!11 (_ BitVec 64))
(declare-const %308 (_ BitVec 1))
(declare-const tmp_dword1!24 (_ BitVec 64))
(declare-const tmp_dword1!25 (_ BitVec 64))
(declare-const %260 (_ BitVec 3))
(declare-const tmp_dword1!26 (_ BitVec 64))
(declare-const %262 (_ BitVec 64))
(declare-const %261 (_ BitVec 1))
(declare-const tmp_dword1!22 (_ BitVec 64))
(declare-const %264 (_ BitVec 32))
(declare-const tmp_dword1!23 (_ BitVec 64))
(declare-const %263 (_ BitVec 32))
(declare-const %266 (_ BitVec 1))
(declare-const tmp_dword!19 (_ BitVec 64))
(declare-const %265 (_ BitVec 3))
(declare-const tmp_dword!18 (_ BitVec 64))
(declare-const %268 (_ BitVec 40))
(declare-const %301 (_ BitVec 48))
(declare-const tmp_dword!17 (_ BitVec 64))
(declare-const %267 (_ BitVec 64))
(declare-const %300 (_ BitVec 16))
(declare-const tmp_dword!16 (_ BitVec 64))
(declare-const tmp_dword!2 (_ BitVec 64))
(declare-const %314 (_ BitVec 64))
(declare-const %313 (_ BitVec 1))
(declare-const %316 (_ BitVec 24))
(declare-const %315 (_ BitVec 40))
(declare-const %318 (_ BitVec 1))
(declare-const %317 (_ BitVec 3))
(declare-const %319 (_ BitVec 64))
(declare-const tmp_dword!9 (_ BitVec 64))
(declare-const tmp_dword!8 (_ BitVec 64))
(declare-const tmp_dword!7 (_ BitVec 64))
(declare-const tmp_dword!6 (_ BitVec 64))
(declare-const tmp_dword!5 (_ BitVec 64))
(declare-const tmp_dword!4 (_ BitVec 64))
(declare-const tmp_dword!3 (_ BitVec 64))
(declare-const tmp_dword2!26 (_ BitVec 64))
(declare-const tmp_dword2!25 (_ BitVec 64))
(declare-const %271 (_ BitVec 1))
(declare-const %270 (_ BitVec 3))
(declare-const tmp_dword2!22 (_ BitVec 64))
(declare-const %273 (_ BitVec 48))
(declare-const %272 (_ BitVec 64))
(declare-const %275 (_ BitVec 64))
(declare-const tmp_dword2!24 (_ BitVec 64))
(declare-const tmp_dword2!23 (_ BitVec 64))
(declare-const %274 (_ BitVec 16))
(declare-const %277 (_ BitVec 8))
(declare-const %310 (_ BitVec 32))
(declare-const %276 (_ BitVec 56))
(declare-const %279 (_ BitVec 64))
(declare-const %312 (_ BitVec 3))
(declare-const %278 (_ BitVec 64))
(declare-const %311 (_ BitVec 32))
(declare-const %325 (_ BitVec 64))
(declare-const %324 (_ BitVec 8))
(declare-const %327 (_ BitVec 64))
(declare-const %326 (_ BitVec 64))
(declare-const %329 (_ BitVec 64))
(declare-const %328 (_ BitVec 1))
(declare-const tmp_address!6 (_ BitVec 64))
(declare-const tmp_address!5 (_ BitVec 64))
(declare-const %280 (_ BitVec 64))
(declare-const %282 (_ BitVec 64))
(declare-const %281 (_ BitVec 64))
(declare-const %284 (_ BitVec 64))
(declare-const XREG!23 (Array (_ BitVec 5) (_ BitVec 64)))
(declare-const %283 (_ BitVec 64))
(declare-const XREG!24 (Array (_ BitVec 5) (_ BitVec 64)))
(declare-const %286 (_ BitVec 3))
(declare-const XREG!21 (Array (_ BitVec 5) (_ BitVec 64)))
(declare-const %285 (_ BitVec 53))
(declare-const XREG!22 (Array (_ BitVec 5) (_ BitVec 64)))
(declare-const %288 (_ BitVec 64))
(declare-const %321 (_ BitVec 16))
(declare-const %287 (_ BitVec 1))
(declare-const XREG!20 (Array (_ BitVec 5) (_ BitVec 64)))
(declare-const %320 (_ BitVec 48))
(declare-const MEM!10 (Array (_ BitVec 53) (_ BitVec 64)))
(declare-const %323 (_ BitVec 56))
(declare-const %289 (_ BitVec 53))
(declare-const %322 (_ BitVec 64))
(declare-const XREG!18 (Array (_ BitVec 5) (_ BitVec 64)))
(declare-const XREG!19 (Array (_ BitVec 5) (_ BitVec 64)))
(declare-const XREG!16 (Array (_ BitVec 5) (_ BitVec 64)))
(declare-const %291 (_ BitVec 64))
(declare-const XREG!17 (Array (_ BitVec 5) (_ BitVec 64)))
(declare-const %290 (_ BitVec 64))
(declare-const XREG!14 (Array (_ BitVec 5) (_ BitVec 64)))
(declare-const %293 (_ BitVec 1))
(declare-const XREG!15 (Array (_ BitVec 5) (_ BitVec 64)))
(declare-const %292 (_ BitVec 3))
(declare-const %295 (_ BitVec 8))
(declare-const %294 (_ BitVec 64))
(declare-const %330 (_ BitVec 64))
(declare-const %297 (_ BitVec 3))
(declare-const %296 (_ BitVec 56))
(declare-const %299 (_ BitVec 64))
(declare-const %332 (_ BitVec 64))
(declare-const %298 (_ BitVec 1))
(declare-const %331 (_ BitVec 64))
(declare-const rd_var!3 (_ BitVec 64))
(declare-const rd_var!2 (_ BitVec 64))
(declare-const %237 (_ BitVec 64))
(declare-const tmp_dword!15 (_ BitVec 64))
(declare-const %236 (_ BitVec 64))
(declare-const tmp_dword!14 (_ BitVec 64))
(declare-const %239 (_ BitVec 3))
(declare-const tmp_dword!13 (_ BitVec 64))
(declare-const %238 (_ BitVec 53))
(declare-const tmp_dword!12 (_ BitVec 64))
(declare-const tmp_dword!11 (_ BitVec 64))
(declare-const tmp_dword!10 (_ BitVec 64))
(declare-const PC!29 (_ BitVec 64))
(declare-const %235 (_ BitVec 64))
(declare-const %234 (_ BitVec 64))
(declare-const %248 (_ BitVec 8))
(declare-const %247 (_ BitVec 64))
(declare-const %249 (_ BitVec 56))
(declare-const PC!33 (_ BitVec 64))
(declare-const PC!34 (_ BitVec 64))
(declare-const PC!31 (_ BitVec 64))
(declare-const PC!32 (_ BitVec 64))
(declare-const PC!30 (_ BitVec 64))
(declare-const PC!39 (_ BitVec 64))
(declare-const PC!37 (_ BitVec 64))
(declare-const PC!38 (_ BitVec 64))
(declare-const PC!35 (_ BitVec 64))
(declare-const PC!36 (_ BitVec 64))
(declare-const %240 (_ BitVec 1))
(declare-const %242 (_ BitVec 53))
(declare-const %241 (_ BitVec 64))
(declare-const mem_index!5 (_ BitVec 53))
(declare-const %244 (_ BitVec 64))
(declare-const %243 (_ BitVec 64))
(declare-const mem_index!6 (_ BitVec 53))
(declare-const %246 (_ BitVec 1))
(declare-const %245 (_ BitVec 3))
(assert 
   (=
     XREG!15
     (store XREG!14 #b00000 #b0000000000000000000000000000000000000000000000000000000000000000)))
(assert 
   (= prev_pc!11 PC!29))
(assert 
   (=
     %236
     (select XREG!15 #b00010)))
(assert 
   (=
     %235
     (bvadd %236 #b0000000000000000000000000000000000000000000000000000000000001000)))
(assert 
   (= tmp_address!5 %235))
(assert 
   (=
     %237
     (bvlshr %235 #b0000000000000000000000000000000000000000000000000000000000000011)))
(assert 
   (=
     %238
     ((_ extract 52 0) %237)))
(assert 
   (= mem_index!5 %238))
(assert 
   (=
     %239
     ((_ extract 2 0) %235)))
(assert 
   (=
     %240
     (ite
       (= %239 #b000)
       #b1
       #b0)))
(assert 
   (=
     %241
     (select MEM!10 %238)))
(assert 
   (= tmp_dword!2 %241))
(assert 
   (=
     %242
     (bvadd %238 #b00000000000000000000000000000000000000000000000000001)))
(assert 
   (=
     %243
     (select MEM!10 %242)))
(assert 
   (= tmp_dword1!23 %243))
(assert 
   (=
     %244
     (select MEM!10 %238)))
(assert 
   (= tmp_dword2!23 %244))
(assert 
   (=
     %245
     ((_ extract 2 0) %235)))
(assert 
   (=
     %246
     (ite
       (= %245 #b001)
       #b1
       #b0)))
(assert 
   (=
     tmp_dword!10
     (ite
       (= %240 #b1)
       %241
       (ite
         (= %246 #b1)
         %247
         (ite
           (= %251 #b1)
           %252
           (ite
             (= %256 #b1)
             %257
             (ite
               (= %261 #b1)
               %262
               (ite
                 (= %266 #b1)
                 %267
                 (ite
                   (= %271 #b1)
                   %272
                   %275)))))))))
(assert 
   (=
     tmp_dword2!24
     (ite
       (= %240 #b1)
       tmp_dword2!22
       %244)))
(assert 
   (=
     tmp_dword1!24
     (ite
       (= %240 #b1)
       tmp_dword1!22
       %243)))
(assert 
   (= rd_var!2 tmp_dword!10))
(assert 
   (=
     XREG!16
     (store XREG!15 #b00001 tmp_dword!10)))
(assert 
   (=
     %234
     (bvadd PC!29 #b0000000000000000000000000000000000000000000000000000000000000100)))
(assert 
   (= PC!46 %234))
(assert 
   (= PC!30 %234))
(assert 
   (= PC!31 PC!30))
(assert 
   (=
     XREG!17
     (store XREG!16 #b00000 #b0000000000000000000000000000000000000000000000000000000000000000)))
(assert 
   (= prev_pc!12 PC!30))
(assert 
   (=
     %280
     (select XREG!17 #b01000)))
(assert 
   (=
     %279
     (bvadd %280 #b0000000000000000000000000000000000000000000000000000000000000000)))
(assert 
   (=
     XREG!18
     (store XREG!17 #b01010 %279)))
(assert 
   (=
     %278
     (bvadd PC!30 #b0000000000000000000000000000000000000000000000000000000000000100)))
(assert 
   (= PC!32 %278))
(assert 
   (= PC!33 %278))
(assert 
   (= PC!34 PC!33))
(assert 
   (=
     XREG!19
     (store XREG!18 #b00000 #b0000000000000000000000000000000000000000000000000000000000000000)))
(assert 
   (= prev_pc!13 PC!33))
(assert 
   (=
     %283
     (select XREG!19 #b00010)))
(assert 
   (=
     %282
     (bvadd %283 #b0000000000000000000000000000000000000000000000000000000000000000)))
(assert 
   (= tmp_address!6 %282))
(assert 
   (=
     %284
     (bvlshr %282 #b0000000000000000000000000000000000000000000000000000000000000011)))
(assert 
   (=
     %285
     ((_ extract 52 0) %284)))
(assert 
   (= mem_index!6 %285))
(assert 
   (=
     %286
     ((_ extract 2 0) %282)))
(assert 
   (=
     %287
     (ite
       (= %286 #b000)
       #b1
       #b0)))
(assert 
   (=
     %248
     ((_ extract 7 0) %243)))
(assert 
   (=
     %249
     ((_ extract 63 8) %244)))
(assert 
   (=
     %247
     (concat %248 %249)))
(assert 
   (= tmp_dword!3 %247))
(assert 
   (=
     %250
     ((_ extract 2 0) %235)))
(assert 
   (=
     %251
     (ite
       (= %250 #b010)
       #b1
       #b0)))
(assert 
   (=
     %253
     ((_ extract 15 0) %243)))
(assert 
   (=
     %254
     ((_ extract 63 16) %244)))
(assert 
   (=
     %252
     (concat %253 %254)))
(assert 
   (= tmp_dword!9 %252))
(assert 
   (=
     %255
     ((_ extract 2 0) %235)))
(assert 
   (=
     %256
     (ite
       (= %255 #b011)
       #b1
       #b0)))
(assert 
   (=
     %258
     ((_ extract 23 0) %243)))
(assert 
   (=
     %259
     ((_ extract 63 24) %244)))
(assert 
   (=
     %257
     (concat %258 %259)))
(assert 
   (= tmp_dword!8 %257))
(assert 
   (=
     %260
     ((_ extract 2 0) %235)))
(assert 
   (=
     %261
     (ite
       (= %260 #b100)
       #b1
       #b0)))
(assert 
   (=
     %263
     ((_ extract 31 0) %243)))
(assert 
   (=
     %264
     ((_ extract 63 32) %244)))
(assert 
   (=
     %262
     (concat %263 %264)))
(assert 
   (= tmp_dword!7 %262))
(assert 
   (=
     %265
     ((_ extract 2 0) %235)))
(assert 
   (=
     %266
     (ite
       (= %265 #b101)
       #b1
       #b0)))
(assert 
   (=
     %268
     ((_ extract 39 0) %243)))
(assert 
   (=
     %269
     ((_ extract 63 40) %244)))
(assert 
   (=
     %267
     (concat %268 %269)))
(assert 
   (= tmp_dword!4 %267))
(assert 
   (=
     %270
     ((_ extract 2 0) %235)))
(assert 
   (=
     %271
     (ite
       (= %270 #b110)
       #b1
       #b0)))
(assert 
   (=
     %288
     (select MEM!10 %285)))
(assert 
   (= tmp_dword!19 %288))
(assert 
   (=
     %289
     (bvadd %285 #b00000000000000000000000000000000000000000000000000001)))
(assert 
   (=
     %290
     (select MEM!10 %289)))
(assert 
   (= tmp_dword1!26 %290))
(assert 
   (=
     %291
     (select MEM!10 %285)))
(assert 
   (= tmp_dword2!26 %291))
(assert 
   (=
     %292
     ((_ extract 2 0) %282)))
(assert 
   (=
     %293
     (ite
       (= %292 #b001)
       #b1
       #b0)))
(assert 
   (=
     %273
     ((_ extract 47 0) %243)))
(assert 
   (=
     %274
     ((_ extract 63 48) %244)))
(assert 
   (=
     %272
     (concat %273 %274)))
(assert 
   (= tmp_dword!6 %272))
(assert 
   (=
     %276
     ((_ extract 55 0) %243)))
(assert 
   (=
     %277
     ((_ extract 63 56) %244)))
(assert 
   (=
     %275
     (concat %276 %277)))
(assert 
   (= tmp_dword!5 %275))
(assert 
   (=
     tmp_dword!11
     (ite
       (= %287 #b1)
       %288
       (ite
         (= %293 #b1)
         %294
         (ite
           (= %298 #b1)
           %299
           (ite
             (= %303 #b1)
             %304
             (ite
               (= %308 #b1)
               %309
               (ite
                 (= %313 #b1)
                 %314
                 (ite
                   (= %318 #b1)
                   %319
                   %322)))))))))
(assert 
   (=
     tmp_dword2!25
     (ite
       (= %287 #b1)
       tmp_dword2!24
       %291)))
(assert 
   (=
     tmp_dword1!25
     (ite
       (= %287 #b1)
       tmp_dword1!24
       %290)))
(assert 
   (= rd_var!3 tmp_dword!11))
(assert 
   (=
     XREG!20
     (store XREG!19 #b01000 tmp_dword!11)))
(assert 
   (=
     %281
     (bvadd PC!33 #b0000000000000000000000000000000000000000000000000000000000000100)))
(assert 
   (= PC!45 %281))
(assert 
   (= PC!35 %281))
(assert 
   (= PC!36 PC!35))
(assert 
   (=
     XREG!21
     (store XREG!20 #b00000 #b0000000000000000000000000000000000000000000000000000000000000000)))
(assert 
   (= prev_pc!14 PC!35))
(assert 
   (=
     %327
     (select XREG!21 #b00010)))
(assert 
   (=
     %326
     (bvadd %327 #b0000000000000000000000000000000000000000000000000000000000010000)))
(assert 
   (=
     XREG!22
     (store XREG!21 #b00010 %326)))
(assert 
   (=
     %325
     (bvadd PC!35 #b0000000000000000000000000000000000000000000000000000000000000100)))
(assert 
   (= PC!37 %325))
(assert 
   (= PC!38 %325))
(assert 
   (= PC!39 PC!38))
(assert 
   (=
     XREG!23
     (store XREG!22 #b00000 #b0000000000000000000000000000000000000000000000000000000000000000)))
(assert 
   (= prev_pc!15 PC!38))
(assert 
   (=
     %330
     (bvadd PC!38 #b0000000000000000000000000000000000000000000000000000000000000100)))
(assert 
   (=
     XREG!24
     (store XREG!23 #b00000 %330)))
(assert 
   (=
     %332
     (select XREG!24 #b00001)))
(assert 
   (=
     %331
     (bvadd %332 #b0000000000000000000000000000000000000000000000000000000000000000)))
(assert 
   (= PC!40 %331))
(assert 
   (=
     %328
     (ite
       (= %331 PC!38)
       #b1
       #b0)))
(assert 
   (=
     %295
     ((_ extract 7 0) %290)))
(assert 
   (=
     %296
     ((_ extract 63 8) %291)))
(assert 
   (=
     %294
     (concat %295 %296)))
(assert 
   (= tmp_dword!18 %294))
(assert 
   (=
     %297
     ((_ extract 2 0) %282)))
(assert 
   (=
     %298
     (ite
       (= %297 #b010)
       #b1
       #b0)))
(assert 
   (=
     %300
     ((_ extract 15 0) %290)))
(assert 
   (=
     %301
     ((_ extract 63 16) %291)))
(assert 
   (=
     %299
     (concat %300 %301)))
(assert 
   (= tmp_dword!17 %299))
(assert 
   (=
     %302
     ((_ extract 2 0) %282)))
(assert 
   (=
     %303
     (ite
       (= %302 #b011)
       #b1
       #b0)))
(assert 
   (=
     %305
     ((_ extract 23 0) %290)))
(assert 
   (=
     %306
     ((_ extract 63 24) %291)))
(assert 
   (=
     %304
     (concat %305 %306)))
(assert 
   (= tmp_dword!12 %304))
(assert 
   (=
     %307
     ((_ extract 2 0) %282)))
(assert 
   (=
     %308
     (ite
       (= %307 #b100)
       #b1
       #b0)))
(assert 
   (=
     %310
     ((_ extract 31 0) %290)))
(assert 
   (=
     %311
     ((_ extract 63 32) %291)))
(assert 
   (=
     %309
     (concat %310 %311)))
(assert 
   (= tmp_dword!13 %309))
(assert 
   (=
     %312
     ((_ extract 2 0) %282)))
(assert 
   (=
     %313
     (ite
       (= %312 #b101)
       #b1
       #b0)))
(assert 
   (=
     %315
     ((_ extract 39 0) %290)))
(assert 
   (=
     %316
     ((_ extract 63 40) %291)))
(assert 
   (=
     %314
     (concat %315 %316)))
(assert 
   (= tmp_dword!14 %314))
(assert 
   (=
     %317
     ((_ extract 2 0) %282)))
(assert 
   (=
     %318
     (ite
       (= %317 #b110)
       #b1
       #b0)))
(assert 
   (=
     %329
     (bvadd %331 #b0000000000000000000000000000000000000000000000000000000000000100)))
(assert 
   (= PC!41 %329))
(assert 
   (=
     %320
     ((_ extract 47 0) %290)))
(assert 
   (=
     %321
     ((_ extract 63 48) %291)))
(assert 
   (=
     %319
     (concat %320 %321)))
(assert 
   (= tmp_dword!15 %319))
(assert 
   (=
     %323
     ((_ extract 55 0) %290)))
(assert 
   (=
     %324
     ((_ extract 63 56) %291)))
(assert 
   (=
     %322
     (concat %323 %324)))
(assert 
   (= tmp_dword!16 %322))
(assert 
   (=
     PC!42
     (ite
       (= %328 #b1)
       %329
       %331)))
(assert 
   (= PC!43 PC!42))
(assert 
   (= PC!44 PC!42))
(check-sat)
(get-value (
  %259
  %258
  PC!44
  PC!45
  PC!42
  PC!43
  PC!40
  PC!41
  PC!46
  %251
  %250
  %253
  %252
  %255
  %254
  %257
  %256
  %303
  prev_pc!14
  prev_pc!13
  %269
  %302
  %305
  %304
  prev_pc!15
  %307
  %306
  prev_pc!12
  %309
  prev_pc!11
  %308
  tmp_dword1!24
  tmp_dword1!25
  %260
  tmp_dword1!26
  %262
  %261
  tmp_dword1!22
  %264
  tmp_dword1!23
  %263
  %266
  tmp_dword!19
  %265
  tmp_dword!18
  %268
  %301
  tmp_dword!17
  %267
  %300
  tmp_dword!16
  tmp_dword!2
  %314
  %313
  %316
  %315
  %318
  %317
  %319
  tmp_dword!9
  tmp_dword!8
  tmp_dword!7
  tmp_dword!6
  tmp_dword!5
  tmp_dword!4
  tmp_dword!3
  tmp_dword2!26
  tmp_dword2!25
  %271
  %270
  tmp_dword2!22
  %273
  %272
  %275
  tmp_dword2!24
  tmp_dword2!23
  %274
  %277
  %310
  %276
  %279
  %312
  %278
  %311
  %325
  %324
  %327
  %326
  %329
  %328
  tmp_address!6
  tmp_address!5
  %280
  %282
  %281
  %284
  XREG!23
  %283
  XREG!24
  %286
  XREG!21
  %285
  XREG!22
  %288
  %321
  %287
  XREG!20
  %320
  MEM!10
  %323
  %289
  %322
  XREG!18
  XREG!19
  XREG!16
  %291
  XREG!17
  %290
  XREG!14
  %293
  XREG!15
  %292
  %295
  %294
  %330
  %297
  %296
  %299
  %332
  %298
  %331
  rd_var!3
  rd_var!2
  %237
  tmp_dword!15
  %236
  tmp_dword!14
  %239
  tmp_dword!13
  %238
  tmp_dword!12
  tmp_dword!11
  tmp_dword!10
  PC!29
  %235
  %234
  %248
  %247
  %249
  PC!33
  PC!34
  PC!31
  PC!32
  PC!30
  PC!39
  PC!37
  PC!38
  PC!35
  PC!36
  %240
  %242
  %241
  mem_index!5
  %244
  %243
  mem_index!6
  %246
  %245
  ))
(get-model)
(exit)
